* Signature: 0x764bd556ef4c123e
NAME lp_typeD_127
OBJSENSE MAX
ROWS
 N  OBJ
 L  c0      
 L  c1      
 G  c2      
 G  c3      
 L  c_key_upper
 G  c_key_lower
 G  _chain_constr_1
 G  _chain_constr_2
 G  _chain_constr_3
 G  _chain_constr_4
 G  _chain_cycle
COLUMNS
    x0        OBJ       6.6980447322524783e-01
    x0        c0        6.5403383890540190e-01
    x0        c1        1.0560432455085140e+00
    x0        c2        1.4218697476461282e+00
    x0        c3        1.1798430065567571e+00
    x0        c_key_upper  1.3743300165052479e+00
    x0        c_key_lower  1.3743300165052479e+00
    x1        OBJ       6.4944187348829363e-01
    x1        c0        1.6254392806752334e+00
    x1        c1        7.3632443992829266e-01
    x1        c2        1.1244634009464081e+00
    x1        c3        1.4343051936466842e+00
    x1        c_key_upper  1.65336597005399
    x1        c_key_lower  1.65336597005399
    x2        OBJ       5.0831910741886543e-01
    x2        c0        1.7205176755894680e+00
    x2        c1        7.6325988122686694e-01
    x2        c2        1.8998130614550530e+00
    x2        c3        5.2092152209037224e-01
    x2        c_key_upper  1.4285092407640634e+00
    x2        c_key_lower  1.4285092407640634e+00
    x3        OBJ       9.1452881252746154e-01
    x3        c0        7.3539076940848658e-01
    x3        c1        1.3611514362329082e+00
    x3        c2        1.8904013367157682e+00
    x3        c3        1.2541144346035267e+00
    x3        c_key_upper  1.2023616958937153e+00
    x3        c_key_lower  1.2023616958937153e+00
    x4        OBJ       1.1888508638969943e+00
    x4        c0        1.9576651982364164e+00
    x4        c1        7.2194169469263114e-01
    x4        c2        1.2237949803300470e+00
    x4        c3        6.7756466551368044e-01
    x4        c_key_upper  1.8983933986583792e+00
    x4        c_key_lower  1.8983933986583792e+00
    x5        OBJ       1.1588522013785145e+00
    x5        c0        1.39304512452585
    x5        c1        1.3460141349990364e+00
    x5        c2        1.4009890403677134e+00
    x5        c3        1.0928406077840283e+00
    x5        c_key_upper  1.2235480448098874e+00
    x5        c_key_lower  1.2235480448098874e+00
    x6        OBJ       6.4816276580766929e-01
    x6        c0        1.8258890677436630e+00
    x6        c1        0.746555694547537
    x6        c2        1.1055792687691910e+00
    x6        c3        7.0781057785731782e-01
    x6        c_key_upper  1.1376916640594157e+00
    x6        c_key_lower  1.1376916640594157e+00
    x7        OBJ       1.2856680463741856e+00
    x7        c0        1.3952076348019886e+00
    x7        c1        1.8606578264472302e+00
    x7        c2        1.9650640510744248e+00
    x7        c3        8.4278123812285266e-01
    x7        c_key_upper  1.4922970874599373e+00
    x7        c_key_lower  1.4922970874599373e+00
    x8        OBJ       1.0357250211224660e+00
    x8        c0        9.3045974121712138e-01
    x8        c1        1.58846057792835
    x8        c2        8.5347661892497029e-01
    x8        c3        5.7625264011312372e-01
    x8        c_key_upper  1.8042137297375811e+00
    x8        c_key_lower  1.8042137297375811e+00
    _chain_var_0  _chain_constr_1  -1
    _chain_var_0  _chain_cycle  1
    _chain_var_1  _chain_constr_1  1
    _chain_var_1  _chain_constr_2  -1
    _chain_var_2  _chain_constr_2  1
    _chain_var_2  _chain_constr_3  -1
    _chain_var_3  _chain_constr_3  1
    _chain_var_3  _chain_constr_4  -1
    _chain_var_4  _chain_constr_4  1
    _chain_var_4  _chain_cycle  -1
RHS
    RHS1      c0        6.1983517625201173e+01
    RHS1      c1        5.6310750598747646e+01
    RHS1      c2        1.4481262004169649e+01
    RHS1      c3        1.4895465363331960e+01
    RHS1      c_key_upper  6.6073554239711086e+01
    RHS1      c_key_lower  3.3036777119855543e+01
    RHS1      _chain_constr_1  10
    RHS1      _chain_constr_2  10
    RHS1      _chain_constr_3  10
    RHS1      _chain_constr_4  10
    RHS1      _chain_cycle  10
BOUNDS
 UP BND1      x0        10
 UP BND1      x1        10
 UP BND1      x2        10
 UP BND1      x3        10
 UP BND1      x4        10
 UP BND1      x5        10
 UP BND1      x6        10
 UP BND1      x7        10
 UP BND1      x8        10
 UP BND1      _chain_var_0  100
 UP BND1      _chain_var_1  100
 UP BND1      _chain_var_2  100
 UP BND1      _chain_var_3  100
 UP BND1      _chain_var_4  100
ENDATA
